\ LP format - for model browsing. Use MPS format to capture full model detail.
Minimize
  X[0,0] + X[0,1] + X[0,2] + X[0,3] + X[0,4] + X[0,5] + X[1,0] + X[1,1]
   + X[1,2] + X[1,3] + X[1,4] + X[1,5] + X[2,0] + X[2,1] + X[2,2] + X[2,3]
   + X[2,4] + X[2,5] + 0 E[0,0] + 0 E[0,1] + 0 E[0,2] + 0 E[0,3] + 0 E[0,4]
   + 0 E[0,5] + 0 E[1,0] + 0 E[1,1] + 0 E[1,2] + 0 E[1,3] + 0 E[1,4]
   + 0 E[1,5] + 0 E[2,0] + 0 E[2,1] + 0 E[2,2] + 0 E[2,3] + 0 E[2,4]
   + 0 E[2,5] + 0 P[0,0,0] + 0 P[0,0,1] + 0 P[0,0,2] + 0 P[0,0,3]
   + 0 P[0,0,4] + 0 P[0,0,5] + 0 P[0,1,0] + 0 P[0,1,1] + 0 P[0,1,2]
   + 0 P[0,1,3] + 0 P[0,1,4] + 0 P[0,1,5] + 0 P[0,2,0] + 0 P[0,2,1]
   + 0 P[0,2,2] + 0 P[0,2,3] + 0 P[0,2,4] + 0 P[0,2,5] + 0 P[0,3,0]
   + 0 P[0,3,1] + 0 P[0,3,2] + 0 P[0,3,3] + 0 P[0,3,4] + 0 P[0,3,5]
   + 0 P[0,4,0] + 0 P[0,4,1] + 0 P[0,4,2] + 0 P[0,4,3] + 0 P[0,4,4]
   + 0 P[0,4,5] + 0 P[0,5,0] + 0 P[0,5,1] + 0 P[0,5,2] + 0 P[0,5,3]
   + 0 P[0,5,4] + 0 P[0,5,5] + 0 P[1,0,0] + 0 P[1,0,1] + 0 P[1,0,2]
   + 0 P[1,0,3] + 0 P[1,0,4] + 0 P[1,0,5] + 0 P[1,1,0] + 0 P[1,1,1]
   + 0 P[1,1,2] + 0 P[1,1,3] + 0 P[1,1,4] + 0 P[1,1,5] + 0 P[1,2,0]
   + 0 P[1,2,1] + 0 P[1,2,2] + 0 P[1,2,3] + 0 P[1,2,4] + 0 P[1,2,5]
   + 0 P[1,3,0] + 0 P[1,3,1] + 0 P[1,3,2] + 0 P[1,3,3] + 0 P[1,3,4]
   + 0 P[1,3,5] + 0 P[1,4,0] + 0 P[1,4,1] + 0 P[1,4,2] + 0 P[1,4,3]
   + 0 P[1,4,4] + 0 P[1,4,5] + 0 P[1,5,0] + 0 P[1,5,1] + 0 P[1,5,2]
   + 0 P[1,5,3] + 0 P[1,5,4] + 0 P[1,5,5] + 0 P[2,0,0] + 0 P[2,0,1]
   + 0 P[2,0,2] + 0 P[2,0,3] + 0 P[2,0,4] + 0 P[2,0,5] + 0 P[2,1,0]
   + 0 P[2,1,1] + 0 P[2,1,2] + 0 P[2,1,3] + 0 P[2,1,4] + 0 P[2,1,5]
   + 0 P[2,2,0] + 0 P[2,2,1] + 0 P[2,2,2] + 0 P[2,2,3] + 0 P[2,2,4]
   + 0 P[2,2,5] + 0 P[2,3,0] + 0 P[2,3,1] + 0 P[2,3,2] + 0 P[2,3,3]
   + 0 P[2,3,4] + 0 P[2,3,5] + 0 P[2,4,0] + 0 P[2,4,1] + 0 P[2,4,2]
   + 0 P[2,4,3] + 0 P[2,4,4] + 0 P[2,4,5] + 0 P[2,5,0] + 0 P[2,5,1]
   + 0 P[2,5,2] + 0 P[2,5,3] + 0 P[2,5,4] + 0 P[2,5,5]
Subject To
 R0: X[0,0] <= 540
 R1: X[1,0] <= 180
 R2: X[2,0] <= 360
 R3: X[0,0] + X[1,0] + X[2,0] >= 68
 R4: X[0,1] <= 360
 R5: X[1,1] <= 360
 R6: X[2,1] <= 540
 R7: X[0,1] + X[1,1] + X[2,1] >= 264
 R8: X[0,2] <= 360
 R9: X[1,2] <= 360
 R10: X[2,2] <= 540
 R11: X[0,2] + X[1,2] + X[2,2] >= 462
 R12: X[0,3] <= 720
 R13: X[1,3] <= 360
 R14: X[2,3] <= 180
 R15: X[0,3] + X[1,3] + X[2,3] >= 540
 R16: X[0,4] <= 360
 R17: X[1,4] <= 360
 R18: X[2,4] <= 360
 R19: X[0,4] + X[1,4] + X[2,4] >= 768
 R20: X[0,5] <= 540
 R21: X[1,5] <= 360
 R22: X[2,5] <= 360
 R23: X[0,5] + X[1,5] + X[2,5] >= 750
Bounds
End
